(set-logic QF_BV)
(declare-fun Alt_Layer_Value () (_ BitVec 16))
(declare-fun Cur_Vertical_Sep () (_ BitVec 16))
(declare-fun High_Confidence () (_ BitVec 16))
(declare-fun Other_Capability () (_ BitVec 16))
(declare-fun Own_Tracked_Alt_Rate () (_ BitVec 16))
(assert (not (= Alt_Layer_Value (_ bv0 16))))
(assert (not (= Alt_Layer_Value (_ bv1 16))))
(assert (not (= Alt_Layer_Value (_ bv2 16))))
(assert (= Alt_Layer_Value (_ bv3 16)))
(assert (not (and (= High_Confidence (_ bv1 16))
          (bvsle Own_Tracked_Alt_Rate (_ bv600 16))
          (bvsgt Cur_Vertical_Sep (_ bv600 16)))))
(assert (= Other_Capability (_ bv1 16)))
(check-sat)
